8320
1 1 0 0 0 1 0 0 0 0 1 0 1 1 1 1 1 0 1 0 
1 0 15 10 12 18 5 16 15 1 5 14 18 13 13 13 12 16 5 15 0 0 10 14 14 14 1 14 15 15 1 1 15 15 15 5 13 13 10 0 0 13 13 13 16 5 5 5 5 15 15 5 0 14 14 10 0 0 18 12 13 5 1 5 15 15 10 14 1 1 15 0 0 0 10 15 15 15 15 14 15 5 16 12 13 13 18 5 12 1 13 13 13 18 18 18 13 18 13 13 
